problems/csplib-prob024/Langford-models/noch/O2/lingeling/model-langford_2_12-solution000001.eprime-solution
language ESSENCE' 1.0

letting seq_Function1D be [5, 8, 2, 11, 3, 2, 5, 12, 3, 6, 8, 9, 10, 4, 7, 11, 6, 1, 4, 1, 12, 9, 7, 10; int(1..24)]
