problems/csplib-prob024/Langford-models/noch/O2/lingeling/model-langford_2_12-solution000001.solution
language Essence 1.3

letting seq be
        function(1 --> 5, 2 --> 8, 3 --> 2, 4 --> 11, 5 --> 3, 6 --> 2, 7 --> 5, 8 --> 12, 9 --> 3, 10 --> 6, 11 --> 8,
                 12 --> 9, 13 --> 10, 14 --> 4, 15 --> 7, 16 --> 11, 17 --> 6, 18 --> 1, 19 --> 4, 20 --> 1, 21 --> 12,
                 22 --> 9, 23 --> 7, 24 --> 10)
